80 94 93 71 72 41 54 96 
12 14 47 17 73 79 78 60 100 70 68 
61 44 39 38 37 35 36 40 43 42 81 
92 62 67 84 56 
10 11 15 16 9 13 82 
66 20 22 24 83 
1 3 5 45 46 8 7 6 4 2 
91 85 63 89 76 51 64 
87 59 97 75 58 57 
90 99 74 86 52 65 
69 98 53 88 55 
50 34 31 29 27 26 28 30 32 33 95 
49 19 18 48 23 21 25 77 
